c This file is generated by v2cnfMtr
c Generated on Mon Nov  9 21:24:28 2015
p cnf 811 2128
-1 -3 -23 0
1 23 0
3 23 0
-3 -4 -20 0
3 20 0
4 20 0
-2 -39 -22 0
2 22 0
39 22 0
-5 -39 -21 0
5 21 0
39 21 0
-26 -65 -18 0
26 18 0
65 18 0
-65 -91 -19 0
65 19 0
91 19 0
6 24 0
-6 -24 0
7 25 0
-7 -25 0
-1 -24 27 0
1 -27 0
24 -27 0
-23 -6 28 0
23 -28 0
6 -28 0
-4 -24 29 0
4 -29 0
24 -29 0
-23 -6 30 0
23 -30 0
6 -30 0
-27 -25 31 0
27 -31 0
25 -31 0
-28 -7 32 0
28 -32 0
7 -32 0
-29 -25 33 0
29 -33 0
25 -33 0
-30 -7 34 0
30 -34 0
7 -34 0
31 32 -35 0
-31 35 0
-32 35 0
33 35 -36 0
-33 36 0
-35 36 0
36 34 -26 0
-36 26 0
-34 26 0
8 37 0
-8 -37 0
9 38 0
-9 -38 0
-1 -37 40 0
1 -40 0
37 -40 0
-20 -8 41 0
20 -41 0
8 -41 0
-4 -37 42 0
4 -42 0
37 -42 0
-20 -8 43 0
20 -43 0
8 -43 0
-40 -38 44 0
40 -44 0
38 -44 0
-41 -9 45 0
41 -45 0
9 -45 0
-42 -38 46 0
42 -46 0
38 -46 0
-43 -9 47 0
43 -47 0
9 -47 0
44 45 -48 0
-44 48 0
-45 48 0
46 48 -49 0
-46 49 0
-48 49 0
49 47 -39 0
-49 39 0
-47 39 0
10 50 0
-10 -50 0
11 51 0
-11 -51 0
-1 -50 53 0
1 -53 0
50 -53 0
-20 -10 54 0
20 -54 0
10 -54 0
-4 -50 55 0
4 -55 0
50 -55 0
-20 -10 56 0
20 -56 0
10 -56 0
-53 -51 57 0
53 -57 0
51 -57 0
-54 -11 58 0
54 -58 0
11 -58 0
-55 -51 59 0
55 -59 0
51 -59 0
-56 -11 60 0
56 -60 0
11 -60 0
57 58 -61 0
-57 61 0
-58 61 0
59 61 -62 0
-59 62 0
-61 62 0
62 60 -52 0
-62 52 0
-60 52 0
12 63 0
-12 -63 0
13 64 0
-13 -64 0
-1 -63 66 0
1 -66 0
63 -66 0
-22 -12 67 0
22 -67 0
12 -67 0
-4 -63 68 0
4 -68 0
63 -68 0
-22 -12 69 0
22 -69 0
12 -69 0
-66 -64 70 0
66 -70 0
64 -70 0
-67 -13 71 0
67 -71 0
13 -71 0
-68 -64 72 0
68 -72 0
64 -72 0
-69 -13 73 0
69 -73 0
13 -73 0
70 71 -74 0
-70 74 0
-71 74 0
72 74 -75 0
-72 75 0
-74 75 0
75 73 -65 0
-75 65 0
-73 65 0
14 76 0
-14 -76 0
15 77 0
-15 -77 0
-1 -76 79 0
1 -79 0
76 -79 0
-22 -14 80 0
22 -80 0
14 -80 0
-4 -76 81 0
4 -81 0
76 -81 0
-22 -14 82 0
22 -82 0
14 -82 0
-79 -77 83 0
79 -83 0
77 -83 0
-80 -15 84 0
80 -84 0
15 -84 0
-81 -77 85 0
81 -85 0
77 -85 0
-82 -15 86 0
82 -86 0
15 -86 0
83 84 -87 0
-83 87 0
-84 87 0
85 87 -88 0
-85 88 0
-87 88 0
88 86 -78 0
-88 78 0
-86 78 0
16 89 0
-16 -89 0
17 90 0
-17 -90 0
-1 -89 92 0
1 -92 0
89 -92 0
-21 -16 93 0
21 -93 0
16 -93 0
-4 -89 94 0
4 -94 0
89 -94 0
-21 -16 95 0
21 -95 0
16 -95 0
-92 -90 96 0
92 -96 0
90 -96 0
-93 -17 97 0
93 -97 0
17 -97 0
-94 -90 98 0
94 -98 0
90 -98 0
-95 -17 99 0
95 -99 0
17 -99 0
96 97 -100 0
-96 100 0
-97 100 0
98 100 -101 0
-98 101 0
-100 101 0
101 99 -91 0
-101 91 0
-99 91 0
c The second circuit:
-102 -104 -124 0
102 124 0
104 124 0
-104 -105 -121 0
104 121 0
105 121 0
-103 -140 -123 0
103 123 0
140 123 0
-106 -140 -122 0
106 122 0
140 122 0
-127 -166 -119 0
127 119 0
166 119 0
-166 -192 -120 0
166 120 0
192 120 0
107 125 0
-107 -125 0
108 126 0
-108 -126 0
-102 -125 128 0
102 -128 0
125 -128 0
-124 -107 129 0
124 -129 0
107 -129 0
-105 -125 130 0
105 -130 0
125 -130 0
-124 -107 131 0
124 -131 0
107 -131 0
-128 -126 132 0
128 -132 0
126 -132 0
-129 -108 133 0
129 -133 0
108 -133 0
-130 -126 134 0
130 -134 0
126 -134 0
-131 -108 135 0
131 -135 0
108 -135 0
132 133 -136 0
-132 136 0
-133 136 0
134 136 -137 0
-134 137 0
-136 137 0
137 135 -127 0
-137 127 0
-135 127 0
109 138 0
-109 -138 0
110 139 0
-110 -139 0
-102 -138 141 0
102 -141 0
138 -141 0
-121 -109 142 0
121 -142 0
109 -142 0
-105 -138 143 0
105 -143 0
138 -143 0
-121 -109 144 0
121 -144 0
109 -144 0
-141 -139 145 0
141 -145 0
139 -145 0
-142 -110 146 0
142 -146 0
110 -146 0
-143 -139 147 0
143 -147 0
139 -147 0
-144 -110 148 0
144 -148 0
110 -148 0
145 146 -149 0
-145 149 0
-146 149 0
147 149 -150 0
-147 150 0
-149 150 0
150 148 -140 0
-150 140 0
-148 140 0
111 151 0
-111 -151 0
112 152 0
-112 -152 0
-102 -151 154 0
102 -154 0
151 -154 0
-121 -111 155 0
121 -155 0
111 -155 0
-105 -151 156 0
105 -156 0
151 -156 0
-121 -111 157 0
121 -157 0
111 -157 0
-154 -152 158 0
154 -158 0
152 -158 0
-155 -112 159 0
155 -159 0
112 -159 0
-156 -152 160 0
156 -160 0
152 -160 0
-157 -112 161 0
157 -161 0
112 -161 0
158 159 -162 0
-158 162 0
-159 162 0
160 162 -163 0
-160 163 0
-162 163 0
163 161 -153 0
-163 153 0
-161 153 0
113 164 0
-113 -164 0
114 165 0
-114 -165 0
-102 -164 167 0
102 -167 0
164 -167 0
-123 -113 168 0
123 -168 0
113 -168 0
-105 -164 169 0
105 -169 0
164 -169 0
-123 -113 170 0
123 -170 0
113 -170 0
-167 -165 171 0
167 -171 0
165 -171 0
-168 -114 172 0
168 -172 0
114 -172 0
-169 -165 173 0
169 -173 0
165 -173 0
-170 -114 174 0
170 -174 0
114 -174 0
171 172 -175 0
-171 175 0
-172 175 0
173 175 -176 0
-173 176 0
-175 176 0
176 174 -166 0
-176 166 0
-174 166 0
115 177 0
-115 -177 0
116 178 0
-116 -178 0
-102 -177 180 0
102 -180 0
177 -180 0
-123 -115 181 0
123 -181 0
115 -181 0
-105 -177 182 0
105 -182 0
177 -182 0
-123 -115 183 0
123 -183 0
115 -183 0
-180 -178 184 0
180 -184 0
178 -184 0
-181 -116 185 0
181 -185 0
116 -185 0
-182 -178 186 0
182 -186 0
178 -186 0
-183 -116 187 0
183 -187 0
116 -187 0
184 185 -188 0
-184 188 0
-185 188 0
186 188 -189 0
-186 189 0
-188 189 0
189 187 -179 0
-189 179 0
-187 179 0
117 190 0
-117 -190 0
118 191 0
-118 -191 0
-102 -190 193 0
102 -193 0
190 -193 0
-122 -117 194 0
122 -194 0
117 -194 0
-105 -190 195 0
105 -195 0
190 -195 0
-122 -117 196 0
122 -196 0
117 -196 0
-193 -191 197 0
193 -197 0
191 -197 0
-194 -118 198 0
194 -198 0
118 -198 0
-195 -191 199 0
195 -199 0
191 -199 0
-196 -118 200 0
196 -200 0
118 -200 0
197 198 -201 0
-197 201 0
-198 201 0
199 201 -202 0
-199 202 0
-201 202 0
202 200 -192 0
-202 192 0
-200 192 0
c Force PIs of 2 ckts to be the same:
1 -102 0
-1 102 0
2 -103 0
-2 103 0
3 -104 0
-3 104 0
4 -105 0
-4 105 0
5 -106 0
-5 106 0
c XOR outputs of 2 ckts:
-18 -119 -203 0
18 119 -203 0
18 -119 203 0
-18 119 203 0
-19 -120 -204 0
19 120 -204 0
19 -120 204 0
-19 120 204 0
c The last OR gate of the miter:
203 204 -205 0
-203 205 0
-204 205 0
205 0
c New ckt:
-206 -208 -228 0
206 228 0
208 228 0
-208 -209 -225 0
208 225 0
209 225 0
-207 -244 -227 0
207 227 0
244 227 0
-210 -244 -226 0
210 226 0
244 226 0
-231 -270 -223 0
231 223 0
270 223 0
-270 -296 -224 0
270 224 0
296 224 0
211 229 0
-211 -229 0
212 230 0
-212 -230 0
-206 -229 232 0
206 -232 0
229 -232 0
-228 -211 233 0
228 -233 0
211 -233 0
-209 -229 234 0
209 -234 0
229 -234 0
-228 -211 235 0
228 -235 0
211 -235 0
-232 -230 236 0
232 -236 0
230 -236 0
-233 -212 237 0
233 -237 0
212 -237 0
-234 -230 238 0
234 -238 0
230 -238 0
-235 -212 239 0
235 -239 0
212 -239 0
236 237 -240 0
-236 240 0
-237 240 0
238 240 -241 0
-238 241 0
-240 241 0
241 239 -231 0
-241 231 0
-239 231 0
213 242 0
-213 -242 0
214 243 0
-214 -243 0
-206 -242 245 0
206 -245 0
242 -245 0
-225 -213 246 0
225 -246 0
213 -246 0
-209 -242 247 0
209 -247 0
242 -247 0
-225 -213 248 0
225 -248 0
213 -248 0
-245 -243 249 0
245 -249 0
243 -249 0
-246 -214 250 0
246 -250 0
214 -250 0
-247 -243 251 0
247 -251 0
243 -251 0
-248 -214 252 0
248 -252 0
214 -252 0
249 250 -253 0
-249 253 0
-250 253 0
251 253 -254 0
-251 254 0
-253 254 0
254 252 -244 0
-254 244 0
-252 244 0
215 255 0
-215 -255 0
216 256 0
-216 -256 0
-206 -255 258 0
206 -258 0
255 -258 0
-225 -215 259 0
225 -259 0
215 -259 0
-209 -255 260 0
209 -260 0
255 -260 0
-225 -215 261 0
225 -261 0
215 -261 0
-258 -256 262 0
258 -262 0
256 -262 0
-259 -216 263 0
259 -263 0
216 -263 0
-260 -256 264 0
260 -264 0
256 -264 0
-261 -216 265 0
261 -265 0
216 -265 0
262 263 -266 0
-262 266 0
-263 266 0
264 266 -267 0
-264 267 0
-266 267 0
267 265 -257 0
-267 257 0
-265 257 0
217 268 0
-217 -268 0
218 269 0
-218 -269 0
-206 -268 271 0
206 -271 0
268 -271 0
-227 -217 272 0
227 -272 0
217 -272 0
-209 -268 273 0
209 -273 0
268 -273 0
-227 -217 274 0
227 -274 0
217 -274 0
-271 -269 275 0
271 -275 0
269 -275 0
-272 -218 276 0
272 -276 0
218 -276 0
-273 -269 277 0
273 -277 0
269 -277 0
-274 -218 278 0
274 -278 0
218 -278 0
275 276 -279 0
-275 279 0
-276 279 0
277 279 -280 0
-277 280 0
-279 280 0
280 278 -270 0
-280 270 0
-278 270 0
219 281 0
-219 -281 0
220 282 0
-220 -282 0
-206 -281 284 0
206 -284 0
281 -284 0
-227 -219 285 0
227 -285 0
219 -285 0
-209 -281 286 0
209 -286 0
281 -286 0
-227 -219 287 0
227 -287 0
219 -287 0
-284 -282 288 0
284 -288 0
282 -288 0
-285 -220 289 0
285 -289 0
220 -289 0
-286 -282 290 0
286 -290 0
282 -290 0
-287 -220 291 0
287 -291 0
220 -291 0
288 289 -292 0
-288 292 0
-289 292 0
290 292 -293 0
-290 293 0
-292 293 0
293 291 -283 0
-293 283 0
-291 283 0
221 294 0
-221 -294 0
222 295 0
-222 -295 0
-206 -294 297 0
206 -297 0
294 -297 0
-226 -221 298 0
226 -298 0
221 -298 0
-209 -294 299 0
209 -299 0
294 -299 0
-226 -221 300 0
226 -300 0
221 -300 0
-297 -295 301 0
297 -301 0
295 -301 0
-298 -222 302 0
298 -302 0
222 -302 0
-299 -295 303 0
299 -303 0
295 -303 0
-300 -222 304 0
300 -304 0
222 -304 0
301 302 -305 0
-301 305 0
-302 305 0
303 305 -306 0
-303 306 0
-305 306 0
306 304 -296 0
-306 296 0
-304 296 0
6 -211 0
-6 211 0
7 -212 0
-7 212 0
8 -213 0
-8 213 0
9 -214 0
-9 214 0
10 -215 0
-10 215 0
11 -216 0
-11 216 0
12 -217 0
-12 217 0
13 -218 0
-13 218 0
14 -219 0
-14 219 0
15 -220 0
-15 220 0
16 -221 0
-16 221 0
17 -222 0
-17 222 0
-206 0
-207 0
208 0
209 0
-210 0
-223 0
-224 0
c New ckt:
-307 -309 -329 0
307 329 0
309 329 0
-309 -310 -326 0
309 326 0
310 326 0
-308 -345 -328 0
308 328 0
345 328 0
-311 -345 -327 0
311 327 0
345 327 0
-332 -371 -324 0
332 324 0
371 324 0
-371 -397 -325 0
371 325 0
397 325 0
312 330 0
-312 -330 0
313 331 0
-313 -331 0
-307 -330 333 0
307 -333 0
330 -333 0
-329 -312 334 0
329 -334 0
312 -334 0
-310 -330 335 0
310 -335 0
330 -335 0
-329 -312 336 0
329 -336 0
312 -336 0
-333 -331 337 0
333 -337 0
331 -337 0
-334 -313 338 0
334 -338 0
313 -338 0
-335 -331 339 0
335 -339 0
331 -339 0
-336 -313 340 0
336 -340 0
313 -340 0
337 338 -341 0
-337 341 0
-338 341 0
339 341 -342 0
-339 342 0
-341 342 0
342 340 -332 0
-342 332 0
-340 332 0
314 343 0
-314 -343 0
315 344 0
-315 -344 0
-307 -343 346 0
307 -346 0
343 -346 0
-326 -314 347 0
326 -347 0
314 -347 0
-310 -343 348 0
310 -348 0
343 -348 0
-326 -314 349 0
326 -349 0
314 -349 0
-346 -344 350 0
346 -350 0
344 -350 0
-347 -315 351 0
347 -351 0
315 -351 0
-348 -344 352 0
348 -352 0
344 -352 0
-349 -315 353 0
349 -353 0
315 -353 0
350 351 -354 0
-350 354 0
-351 354 0
352 354 -355 0
-352 355 0
-354 355 0
355 353 -345 0
-355 345 0
-353 345 0
316 356 0
-316 -356 0
317 357 0
-317 -357 0
-307 -356 359 0
307 -359 0
356 -359 0
-326 -316 360 0
326 -360 0
316 -360 0
-310 -356 361 0
310 -361 0
356 -361 0
-326 -316 362 0
326 -362 0
316 -362 0
-359 -357 363 0
359 -363 0
357 -363 0
-360 -317 364 0
360 -364 0
317 -364 0
-361 -357 365 0
361 -365 0
357 -365 0
-362 -317 366 0
362 -366 0
317 -366 0
363 364 -367 0
-363 367 0
-364 367 0
365 367 -368 0
-365 368 0
-367 368 0
368 366 -358 0
-368 358 0
-366 358 0
318 369 0
-318 -369 0
319 370 0
-319 -370 0
-307 -369 372 0
307 -372 0
369 -372 0
-328 -318 373 0
328 -373 0
318 -373 0
-310 -369 374 0
310 -374 0
369 -374 0
-328 -318 375 0
328 -375 0
318 -375 0
-372 -370 376 0
372 -376 0
370 -376 0
-373 -319 377 0
373 -377 0
319 -377 0
-374 -370 378 0
374 -378 0
370 -378 0
-375 -319 379 0
375 -379 0
319 -379 0
376 377 -380 0
-376 380 0
-377 380 0
378 380 -381 0
-378 381 0
-380 381 0
381 379 -371 0
-381 371 0
-379 371 0
320 382 0
-320 -382 0
321 383 0
-321 -383 0
-307 -382 385 0
307 -385 0
382 -385 0
-328 -320 386 0
328 -386 0
320 -386 0
-310 -382 387 0
310 -387 0
382 -387 0
-328 -320 388 0
328 -388 0
320 -388 0
-385 -383 389 0
385 -389 0
383 -389 0
-386 -321 390 0
386 -390 0
321 -390 0
-387 -383 391 0
387 -391 0
383 -391 0
-388 -321 392 0
388 -392 0
321 -392 0
389 390 -393 0
-389 393 0
-390 393 0
391 393 -394 0
-391 394 0
-393 394 0
394 392 -384 0
-394 384 0
-392 384 0
322 395 0
-322 -395 0
323 396 0
-323 -396 0
-307 -395 398 0
307 -398 0
395 -398 0
-327 -322 399 0
327 -399 0
322 -399 0
-310 -395 400 0
310 -400 0
395 -400 0
-327 -322 401 0
327 -401 0
322 -401 0
-398 -396 402 0
398 -402 0
396 -402 0
-399 -323 403 0
399 -403 0
323 -403 0
-400 -396 404 0
400 -404 0
396 -404 0
-401 -323 405 0
401 -405 0
323 -405 0
402 403 -406 0
-402 406 0
-403 406 0
404 406 -407 0
-404 407 0
-406 407 0
407 405 -397 0
-407 397 0
-405 397 0
107 -312 0
-107 312 0
108 -313 0
-108 313 0
109 -314 0
-109 314 0
110 -315 0
-110 315 0
111 -316 0
-111 316 0
112 -317 0
-112 317 0
113 -318 0
-113 318 0
114 -319 0
-114 319 0
115 -320 0
-115 320 0
116 -321 0
-116 321 0
117 -322 0
-117 322 0
118 -323 0
-118 323 0
-307 0
-308 0
309 0
310 0
-311 0
-324 0
-325 0
c New ckt:
-408 -410 -430 0
408 430 0
410 430 0
-410 -411 -427 0
410 427 0
411 427 0
-409 -446 -429 0
409 429 0
446 429 0
-412 -446 -428 0
412 428 0
446 428 0
-433 -472 -425 0
433 425 0
472 425 0
-472 -498 -426 0
472 426 0
498 426 0
413 431 0
-413 -431 0
414 432 0
-414 -432 0
-408 -431 434 0
408 -434 0
431 -434 0
-430 -413 435 0
430 -435 0
413 -435 0
-411 -431 436 0
411 -436 0
431 -436 0
-430 -413 437 0
430 -437 0
413 -437 0
-434 -432 438 0
434 -438 0
432 -438 0
-435 -414 439 0
435 -439 0
414 -439 0
-436 -432 440 0
436 -440 0
432 -440 0
-437 -414 441 0
437 -441 0
414 -441 0
438 439 -442 0
-438 442 0
-439 442 0
440 442 -443 0
-440 443 0
-442 443 0
443 441 -433 0
-443 433 0
-441 433 0
415 444 0
-415 -444 0
416 445 0
-416 -445 0
-408 -444 447 0
408 -447 0
444 -447 0
-427 -415 448 0
427 -448 0
415 -448 0
-411 -444 449 0
411 -449 0
444 -449 0
-427 -415 450 0
427 -450 0
415 -450 0
-447 -445 451 0
447 -451 0
445 -451 0
-448 -416 452 0
448 -452 0
416 -452 0
-449 -445 453 0
449 -453 0
445 -453 0
-450 -416 454 0
450 -454 0
416 -454 0
451 452 -455 0
-451 455 0
-452 455 0
453 455 -456 0
-453 456 0
-455 456 0
456 454 -446 0
-456 446 0
-454 446 0
417 457 0
-417 -457 0
418 458 0
-418 -458 0
-408 -457 460 0
408 -460 0
457 -460 0
-427 -417 461 0
427 -461 0
417 -461 0
-411 -457 462 0
411 -462 0
457 -462 0
-427 -417 463 0
427 -463 0
417 -463 0
-460 -458 464 0
460 -464 0
458 -464 0
-461 -418 465 0
461 -465 0
418 -465 0
-462 -458 466 0
462 -466 0
458 -466 0
-463 -418 467 0
463 -467 0
418 -467 0
464 465 -468 0
-464 468 0
-465 468 0
466 468 -469 0
-466 469 0
-468 469 0
469 467 -459 0
-469 459 0
-467 459 0
419 470 0
-419 -470 0
420 471 0
-420 -471 0
-408 -470 473 0
408 -473 0
470 -473 0
-429 -419 474 0
429 -474 0
419 -474 0
-411 -470 475 0
411 -475 0
470 -475 0
-429 -419 476 0
429 -476 0
419 -476 0
-473 -471 477 0
473 -477 0
471 -477 0
-474 -420 478 0
474 -478 0
420 -478 0
-475 -471 479 0
475 -479 0
471 -479 0
-476 -420 480 0
476 -480 0
420 -480 0
477 478 -481 0
-477 481 0
-478 481 0
479 481 -482 0
-479 482 0
-481 482 0
482 480 -472 0
-482 472 0
-480 472 0
421 483 0
-421 -483 0
422 484 0
-422 -484 0
-408 -483 486 0
408 -486 0
483 -486 0
-429 -421 487 0
429 -487 0
421 -487 0
-411 -483 488 0
411 -488 0
483 -488 0
-429 -421 489 0
429 -489 0
421 -489 0
-486 -484 490 0
486 -490 0
484 -490 0
-487 -422 491 0
487 -491 0
422 -491 0
-488 -484 492 0
488 -492 0
484 -492 0
-489 -422 493 0
489 -493 0
422 -493 0
490 491 -494 0
-490 494 0
-491 494 0
492 494 -495 0
-492 495 0
-494 495 0
495 493 -485 0
-495 485 0
-493 485 0
423 496 0
-423 -496 0
424 497 0
-424 -497 0
-408 -496 499 0
408 -499 0
496 -499 0
-428 -423 500 0
428 -500 0
423 -500 0
-411 -496 501 0
411 -501 0
496 -501 0
-428 -423 502 0
428 -502 0
423 -502 0
-499 -497 503 0
499 -503 0
497 -503 0
-500 -424 504 0
500 -504 0
424 -504 0
-501 -497 505 0
501 -505 0
497 -505 0
-502 -424 506 0
502 -506 0
424 -506 0
503 504 -507 0
-503 507 0
-504 507 0
505 507 -508 0
-505 508 0
-507 508 0
508 506 -498 0
-508 498 0
-506 498 0
6 -413 0
-6 413 0
7 -414 0
-7 414 0
8 -415 0
-8 415 0
9 -416 0
-9 416 0
10 -417 0
-10 417 0
11 -418 0
-11 418 0
12 -419 0
-12 419 0
13 -420 0
-13 420 0
14 -421 0
-14 421 0
15 -422 0
-15 422 0
16 -423 0
-16 423 0
17 -424 0
-17 424 0
-408 0
409 0
-410 0
-411 0
-412 0
425 0
-426 0
c New ckt:
-509 -511 -531 0
509 531 0
511 531 0
-511 -512 -528 0
511 528 0
512 528 0
-510 -547 -530 0
510 530 0
547 530 0
-513 -547 -529 0
513 529 0
547 529 0
-534 -573 -526 0
534 526 0
573 526 0
-573 -599 -527 0
573 527 0
599 527 0
514 532 0
-514 -532 0
515 533 0
-515 -533 0
-509 -532 535 0
509 -535 0
532 -535 0
-531 -514 536 0
531 -536 0
514 -536 0
-512 -532 537 0
512 -537 0
532 -537 0
-531 -514 538 0
531 -538 0
514 -538 0
-535 -533 539 0
535 -539 0
533 -539 0
-536 -515 540 0
536 -540 0
515 -540 0
-537 -533 541 0
537 -541 0
533 -541 0
-538 -515 542 0
538 -542 0
515 -542 0
539 540 -543 0
-539 543 0
-540 543 0
541 543 -544 0
-541 544 0
-543 544 0
544 542 -534 0
-544 534 0
-542 534 0
516 545 0
-516 -545 0
517 546 0
-517 -546 0
-509 -545 548 0
509 -548 0
545 -548 0
-528 -516 549 0
528 -549 0
516 -549 0
-512 -545 550 0
512 -550 0
545 -550 0
-528 -516 551 0
528 -551 0
516 -551 0
-548 -546 552 0
548 -552 0
546 -552 0
-549 -517 553 0
549 -553 0
517 -553 0
-550 -546 554 0
550 -554 0
546 -554 0
-551 -517 555 0
551 -555 0
517 -555 0
552 553 -556 0
-552 556 0
-553 556 0
554 556 -557 0
-554 557 0
-556 557 0
557 555 -547 0
-557 547 0
-555 547 0
518 558 0
-518 -558 0
519 559 0
-519 -559 0
-509 -558 561 0
509 -561 0
558 -561 0
-528 -518 562 0
528 -562 0
518 -562 0
-512 -558 563 0
512 -563 0
558 -563 0
-528 -518 564 0
528 -564 0
518 -564 0
-561 -559 565 0
561 -565 0
559 -565 0
-562 -519 566 0
562 -566 0
519 -566 0
-563 -559 567 0
563 -567 0
559 -567 0
-564 -519 568 0
564 -568 0
519 -568 0
565 566 -569 0
-565 569 0
-566 569 0
567 569 -570 0
-567 570 0
-569 570 0
570 568 -560 0
-570 560 0
-568 560 0
520 571 0
-520 -571 0
521 572 0
-521 -572 0
-509 -571 574 0
509 -574 0
571 -574 0
-530 -520 575 0
530 -575 0
520 -575 0
-512 -571 576 0
512 -576 0
571 -576 0
-530 -520 577 0
530 -577 0
520 -577 0
-574 -572 578 0
574 -578 0
572 -578 0
-575 -521 579 0
575 -579 0
521 -579 0
-576 -572 580 0
576 -580 0
572 -580 0
-577 -521 581 0
577 -581 0
521 -581 0
578 579 -582 0
-578 582 0
-579 582 0
580 582 -583 0
-580 583 0
-582 583 0
583 581 -573 0
-583 573 0
-581 573 0
522 584 0
-522 -584 0
523 585 0
-523 -585 0
-509 -584 587 0
509 -587 0
584 -587 0
-530 -522 588 0
530 -588 0
522 -588 0
-512 -584 589 0
512 -589 0
584 -589 0
-530 -522 590 0
530 -590 0
522 -590 0
-587 -585 591 0
587 -591 0
585 -591 0
-588 -523 592 0
588 -592 0
523 -592 0
-589 -585 593 0
589 -593 0
585 -593 0
-590 -523 594 0
590 -594 0
523 -594 0
591 592 -595 0
-591 595 0
-592 595 0
593 595 -596 0
-593 596 0
-595 596 0
596 594 -586 0
-596 586 0
-594 586 0
524 597 0
-524 -597 0
525 598 0
-525 -598 0
-509 -597 600 0
509 -600 0
597 -600 0
-529 -524 601 0
529 -601 0
524 -601 0
-512 -597 602 0
512 -602 0
597 -602 0
-529 -524 603 0
529 -603 0
524 -603 0
-600 -598 604 0
600 -604 0
598 -604 0
-601 -525 605 0
601 -605 0
525 -605 0
-602 -598 606 0
602 -606 0
598 -606 0
-603 -525 607 0
603 -607 0
525 -607 0
604 605 -608 0
-604 608 0
-605 608 0
606 608 -609 0
-606 609 0
-608 609 0
609 607 -599 0
-609 599 0
-607 599 0
107 -514 0
-107 514 0
108 -515 0
-108 515 0
109 -516 0
-109 516 0
110 -517 0
-110 517 0
111 -518 0
-111 518 0
112 -519 0
-112 519 0
113 -520 0
-113 520 0
114 -521 0
-114 521 0
115 -522 0
-115 522 0
116 -523 0
-116 523 0
117 -524 0
-117 524 0
118 -525 0
-118 525 0
-509 0
510 0
-511 0
-512 0
-513 0
526 0
-527 0
c New ckt:
-610 -612 -632 0
610 632 0
612 632 0
-612 -613 -629 0
612 629 0
613 629 0
-611 -648 -631 0
611 631 0
648 631 0
-614 -648 -630 0
614 630 0
648 630 0
-635 -674 -627 0
635 627 0
674 627 0
-674 -700 -628 0
674 628 0
700 628 0
615 633 0
-615 -633 0
616 634 0
-616 -634 0
-610 -633 636 0
610 -636 0
633 -636 0
-632 -615 637 0
632 -637 0
615 -637 0
-613 -633 638 0
613 -638 0
633 -638 0
-632 -615 639 0
632 -639 0
615 -639 0
-636 -634 640 0
636 -640 0
634 -640 0
-637 -616 641 0
637 -641 0
616 -641 0
-638 -634 642 0
638 -642 0
634 -642 0
-639 -616 643 0
639 -643 0
616 -643 0
640 641 -644 0
-640 644 0
-641 644 0
642 644 -645 0
-642 645 0
-644 645 0
645 643 -635 0
-645 635 0
-643 635 0
617 646 0
-617 -646 0
618 647 0
-618 -647 0
-610 -646 649 0
610 -649 0
646 -649 0
-629 -617 650 0
629 -650 0
617 -650 0
-613 -646 651 0
613 -651 0
646 -651 0
-629 -617 652 0
629 -652 0
617 -652 0
-649 -647 653 0
649 -653 0
647 -653 0
-650 -618 654 0
650 -654 0
618 -654 0
-651 -647 655 0
651 -655 0
647 -655 0
-652 -618 656 0
652 -656 0
618 -656 0
653 654 -657 0
-653 657 0
-654 657 0
655 657 -658 0
-655 658 0
-657 658 0
658 656 -648 0
-658 648 0
-656 648 0
619 659 0
-619 -659 0
620 660 0
-620 -660 0
-610 -659 662 0
610 -662 0
659 -662 0
-629 -619 663 0
629 -663 0
619 -663 0
-613 -659 664 0
613 -664 0
659 -664 0
-629 -619 665 0
629 -665 0
619 -665 0
-662 -660 666 0
662 -666 0
660 -666 0
-663 -620 667 0
663 -667 0
620 -667 0
-664 -660 668 0
664 -668 0
660 -668 0
-665 -620 669 0
665 -669 0
620 -669 0
666 667 -670 0
-666 670 0
-667 670 0
668 670 -671 0
-668 671 0
-670 671 0
671 669 -661 0
-671 661 0
-669 661 0
621 672 0
-621 -672 0
622 673 0
-622 -673 0
-610 -672 675 0
610 -675 0
672 -675 0
-631 -621 676 0
631 -676 0
621 -676 0
-613 -672 677 0
613 -677 0
672 -677 0
-631 -621 678 0
631 -678 0
621 -678 0
-675 -673 679 0
675 -679 0
673 -679 0
-676 -622 680 0
676 -680 0
622 -680 0
-677 -673 681 0
677 -681 0
673 -681 0
-678 -622 682 0
678 -682 0
622 -682 0
679 680 -683 0
-679 683 0
-680 683 0
681 683 -684 0
-681 684 0
-683 684 0
684 682 -674 0
-684 674 0
-682 674 0
623 685 0
-623 -685 0
624 686 0
-624 -686 0
-610 -685 688 0
610 -688 0
685 -688 0
-631 -623 689 0
631 -689 0
623 -689 0
-613 -685 690 0
613 -690 0
685 -690 0
-631 -623 691 0
631 -691 0
623 -691 0
-688 -686 692 0
688 -692 0
686 -692 0
-689 -624 693 0
689 -693 0
624 -693 0
-690 -686 694 0
690 -694 0
686 -694 0
-691 -624 695 0
691 -695 0
624 -695 0
692 693 -696 0
-692 696 0
-693 696 0
694 696 -697 0
-694 697 0
-696 697 0
697 695 -687 0
-697 687 0
-695 687 0
625 698 0
-625 -698 0
626 699 0
-626 -699 0
-610 -698 701 0
610 -701 0
698 -701 0
-630 -625 702 0
630 -702 0
625 -702 0
-613 -698 703 0
613 -703 0
698 -703 0
-630 -625 704 0
630 -704 0
625 -704 0
-701 -699 705 0
701 -705 0
699 -705 0
-702 -626 706 0
702 -706 0
626 -706 0
-703 -699 707 0
703 -707 0
699 -707 0
-704 -626 708 0
704 -708 0
626 -708 0
705 706 -709 0
-705 709 0
-706 709 0
707 709 -710 0
-707 710 0
-709 710 0
710 708 -700 0
-710 700 0
-708 700 0
6 -615 0
-6 615 0
7 -616 0
-7 616 0
8 -617 0
-8 617 0
9 -618 0
-9 618 0
10 -619 0
-10 619 0
11 -620 0
-11 620 0
12 -621 0
-12 621 0
13 -622 0
-13 622 0
14 -623 0
-14 623 0
15 -624 0
-15 624 0
16 -625 0
-16 625 0
17 -626 0
-17 626 0
610 0
611 0
-612 0
-613 0
-614 0
627 0
-628 0
c New ckt:
-711 -713 -733 0
711 733 0
713 733 0
-713 -714 -730 0
713 730 0
714 730 0
-712 -749 -732 0
712 732 0
749 732 0
-715 -749 -731 0
715 731 0
749 731 0
-736 -775 -728 0
736 728 0
775 728 0
-775 -801 -729 0
775 729 0
801 729 0
716 734 0
-716 -734 0
717 735 0
-717 -735 0
-711 -734 737 0
711 -737 0
734 -737 0
-733 -716 738 0
733 -738 0
716 -738 0
-714 -734 739 0
714 -739 0
734 -739 0
-733 -716 740 0
733 -740 0
716 -740 0
-737 -735 741 0
737 -741 0
735 -741 0
-738 -717 742 0
738 -742 0
717 -742 0
-739 -735 743 0
739 -743 0
735 -743 0
-740 -717 744 0
740 -744 0
717 -744 0
741 742 -745 0
-741 745 0
-742 745 0
743 745 -746 0
-743 746 0
-745 746 0
746 744 -736 0
-746 736 0
-744 736 0
718 747 0
-718 -747 0
719 748 0
-719 -748 0
-711 -747 750 0
711 -750 0
747 -750 0
-730 -718 751 0
730 -751 0
718 -751 0
-714 -747 752 0
714 -752 0
747 -752 0
-730 -718 753 0
730 -753 0
718 -753 0
-750 -748 754 0
750 -754 0
748 -754 0
-751 -719 755 0
751 -755 0
719 -755 0
-752 -748 756 0
752 -756 0
748 -756 0
-753 -719 757 0
753 -757 0
719 -757 0
754 755 -758 0
-754 758 0
-755 758 0
756 758 -759 0
-756 759 0
-758 759 0
759 757 -749 0
-759 749 0
-757 749 0
720 760 0
-720 -760 0
721 761 0
-721 -761 0
-711 -760 763 0
711 -763 0
760 -763 0
-730 -720 764 0
730 -764 0
720 -764 0
-714 -760 765 0
714 -765 0
760 -765 0
-730 -720 766 0
730 -766 0
720 -766 0
-763 -761 767 0
763 -767 0
761 -767 0
-764 -721 768 0
764 -768 0
721 -768 0
-765 -761 769 0
765 -769 0
761 -769 0
-766 -721 770 0
766 -770 0
721 -770 0
767 768 -771 0
-767 771 0
-768 771 0
769 771 -772 0
-769 772 0
-771 772 0
772 770 -762 0
-772 762 0
-770 762 0
722 773 0
-722 -773 0
723 774 0
-723 -774 0
-711 -773 776 0
711 -776 0
773 -776 0
-732 -722 777 0
732 -777 0
722 -777 0
-714 -773 778 0
714 -778 0
773 -778 0
-732 -722 779 0
732 -779 0
722 -779 0
-776 -774 780 0
776 -780 0
774 -780 0
-777 -723 781 0
777 -781 0
723 -781 0
-778 -774 782 0
778 -782 0
774 -782 0
-779 -723 783 0
779 -783 0
723 -783 0
780 781 -784 0
-780 784 0
-781 784 0
782 784 -785 0
-782 785 0
-784 785 0
785 783 -775 0
-785 775 0
-783 775 0
724 786 0
-724 -786 0
725 787 0
-725 -787 0
-711 -786 789 0
711 -789 0
786 -789 0
-732 -724 790 0
732 -790 0
724 -790 0
-714 -786 791 0
714 -791 0
786 -791 0
-732 -724 792 0
732 -792 0
724 -792 0
-789 -787 793 0
789 -793 0
787 -793 0
-790 -725 794 0
790 -794 0
725 -794 0
-791 -787 795 0
791 -795 0
787 -795 0
-792 -725 796 0
792 -796 0
725 -796 0
793 794 -797 0
-793 797 0
-794 797 0
795 797 -798 0
-795 798 0
-797 798 0
798 796 -788 0
-798 788 0
-796 788 0
726 799 0
-726 -799 0
727 800 0
-727 -800 0
-711 -799 802 0
711 -802 0
799 -802 0
-731 -726 803 0
731 -803 0
726 -803 0
-714 -799 804 0
714 -804 0
799 -804 0
-731 -726 805 0
731 -805 0
726 -805 0
-802 -800 806 0
802 -806 0
800 -806 0
-803 -727 807 0
803 -807 0
727 -807 0
-804 -800 808 0
804 -808 0
800 -808 0
-805 -727 809 0
805 -809 0
727 -809 0
806 807 -810 0
-806 810 0
-807 810 0
808 810 -811 0
-808 811 0
-810 811 0
811 809 -801 0
-811 801 0
-809 801 0
107 -716 0
-107 716 0
108 -717 0
-108 717 0
109 -718 0
-109 718 0
110 -719 0
-110 719 0
111 -720 0
-111 720 0
112 -721 0
-112 721 0
113 -722 0
-113 722 0
114 -723 0
-114 723 0
115 -724 0
-115 724 0
116 -725 0
-116 725 0
117 -726 0
-117 726 0
118 -727 0
-118 727 0
711 0
712 0
-713 0
-714 0
-715 0
728 0
-729 0
